\ Model (null)_copy
\ LP format - for model browsing. Use MPS format to capture full model detail.
Minimize
 
Subject To
 C77: X19 - X22 - X23 + 7 X115 <= 7
 C90: X19 - X21 - X22 - X23 - X24 = 0
 C338: X21 = 1
 C340: X4 - 99999 X105 >= -100450
 C348: - X4 + X5 - 99999 X109 >= -97555
 C353: - X4 + X5 + 99999 X111 <= 101492
 C367: X109 + X111 + X115 + X119 >= 1
 C368: - X105 + X119 <= 0
Bounds
 X4 = -652
 X5 = 1576
Binaries
 X19 X21 X22 X23 X24 X105 X109 X111 X115 X119
Generals
 X4 X5
End
